10  5
 1  8  3  4  2 12  0 10  4 11  27 170  10
 1  9  4  8  2 12  0  3  3 11   2 174  10
 3  6  4  5  2 11  1  7  0  6  19 160   5
 0 10  3  6  2 15  4  8  1  8   2 172  10
 4 10  1 11  2 12  0  7  3 11  21 163  10
 4  6  3  9  2 10  0  3  1  7  33 158  10
 3 11  0  4  2 13  4  6  1  9  23 154   5
 0  8  3  3  2 11  4 10  1  7   4 163  10
 3  9  0  5  2 10  1 11  4 11  15 165   5
 0  4  3  6  2 13  1  5  4  4   5 166   5
